c Sudoku solution
p cnf 729 0
122 0
219 0
231 0
284 0
313 0
358 0
379 0
395 0
421 0
463 0
499 0
548 0
557 0
634 0
652 0
688 0
727 0
732 0
754 0
843 0
859 0
789 0
871 0
882 0
915 0
711 0
865 0
746 0
768 0
951 0
775 0
793 0
897 0
986 0
974 0
998 0
444 0
594 0
292 0
512 0
472 0
616 0
456 0
645 0
576 0
691 0
561 0
669 0
677 0
583 0
485 0
623 0
929 0
933 0
525 0
539 0
135 0
247 0
255 0
153 0
266 0
273 0
178 0
196 0
228 0
942 0
967 0
341 0
149 0
362 0
164 0
181 0
387 0
117 0
324 0
336 0
814 0
826 0
838 0
418 0
437 0
